
Gurobi 8.1.1 (win64, Java) logging started 04/26/19 01:32:39

Academic license - for non-commercial use only
Optimize a model with 3 rows, 2 columns and 4 nonzeros
Variable types: 0 continuous, 2 integer (0 binary)
Coefficient statistics:
  Matrix range     [1e+00, 3e+01]
  Objective range  [1e+02, 2e+02]
  Bounds range     [0e+00, 0e+00]
  RHS range        [3e+01, 1e+03]
Found heuristic solution: objective 4150.0000000
Presolve removed 3 rows and 2 columns
Presolve time: 0.02s
Presolve: All rows and columns removed

Explored 0 nodes (0 simplex iterations) in 0.02 seconds
Thread count was 1 (of 4 available processors)

Solution count 1: 4150 

Optimal solution found (tolerance 1.00e-04)
Best objective 4.150000000000e+03, best bound 4.150000000000e+03, gap 0.0000%

Gurobi 8.1.1 (win64, Java) logging started 04/26/19 01:35:28

Academic license - for non-commercial use only
Optimize a model with 3 rows, 2 columns and 4 nonzeros
Variable types: 0 continuous, 2 integer (0 binary)
Coefficient statistics:
  Matrix range     [1e+00, 3e+01]
  Objective range  [1e+02, 2e+02]
  Bounds range     [0e+00, 0e+00]
  RHS range        [3e+01, 1e+03]
Found heuristic solution: objective 4150.0000000
Presolve removed 3 rows and 2 columns
Presolve time: 0.00s
Presolve: All rows and columns removed

Explored 0 nodes (0 simplex iterations) in 0.00 seconds
Thread count was 1 (of 4 available processors)

Solution count 1: 4150 

Optimal solution found (tolerance 1.00e-04)
Best objective 4.150000000000e+03, best bound 4.150000000000e+03, gap 0.0000%

Gurobi 8.1.1 (win64, Java) logging started 04/26/19 01:39:50

Academic license - for non-commercial use only
Optimize a model with 3 rows, 2 columns and 4 nonzeros
Variable types: 0 continuous, 2 integer (0 binary)
Coefficient statistics:
  Matrix range     [1e+00, 3e+01]
  Objective range  [1e+02, 2e+02]
  Bounds range     [0e+00, 0e+00]
  RHS range        [3e+01, 1e+02]
Found heuristic solution: objective 4150.0000000
Presolve removed 3 rows and 2 columns
Presolve time: 0.00s
Presolve: All rows and columns removed

Explored 0 nodes (0 simplex iterations) in 0.00 seconds
Thread count was 1 (of 4 available processors)

Solution count 1: 4150 

Optimal solution found (tolerance 1.00e-04)
Best objective 4.150000000000e+03, best bound 4.150000000000e+03, gap 0.0000%

Gurobi 8.1.1 (win64, Java) logging started 04/26/19 12:43:36

Academic license - for non-commercial use only
Optimize a model with 3 rows, 2 columns and 4 nonzeros
Variable types: 0 continuous, 2 integer (0 binary)
Coefficient statistics:
  Matrix range     [1e+00, 3e+01]
  Objective range  [1e+02, 2e+02]
  Bounds range     [0e+00, 0e+00]
  RHS range        [3e+01, 1e+02]
Found heuristic solution: objective 4150.0000000
Presolve removed 3 rows and 2 columns
Presolve time: 0.00s
Presolve: All rows and columns removed

Explored 0 nodes (0 simplex iterations) in 0.00 seconds
Thread count was 1 (of 4 available processors)

Solution count 1: 4150 

Optimal solution found (tolerance 1.00e-04)
Best objective 4.150000000000e+03, best bound 4.150000000000e+03, gap 0.0000%
